; benchmark generated from python API
(set-info :status unknown)
(declare-datatypes ((RealState 0)) (((RMk1 (rval1 Real)) (RMk2 (rval2 Real)))))
 (declare-fun x1 () Real)
(assert
 (exists ((?y1_st RealState) (val!302 Real) )(exists ((?y2_st RealState) (val!303 Real) )(let (($x77 (exists ((?y3 Real) )(! (exists ((?y4 Real) )(! (let ((?x990 (- 53.0)))
 (let ((?x10118 (- 63.0)))
 (let ((?x7056 (* ?x10118 x1)))
 (let ((?x824 (+ (+ (* (- 20.0) ?y4) (* (- 49.0) (rval2 ?y2_st))) (* 10.0 (rval2 ?y1_st)))))
 (let ((?x4413 (- 47.0)))
 (let ((?x2668 (* ?x4413 x1)))
 (let ((?x3883 (- 35.0)))
 (let ((?x12092 (* ?x3883 ?y3)))
 (let ((?x10585 (+ (* (- 6.0) ?y4) ?x12092)))
 (let (($x10811 (or (not (= (+ (+ ?x10585 (* (- 48.0) (rval2 ?y1_st))) ?x2668) 21.0)) (>= (+ ?x824 ?x7056) ?x990))))
 (let (($x2042 (> (+ (+ (* (- 8.0) ?y4) (* 57.0 ?y3)) (* (- 91.0) x1)) 5.0)))
 (let ((?x3593 (- 98.0)))
 (let (($x8686 (< (+ (+ ?x12092 (* (- 20.0) (rval2 ?y1_st))) (* (- 62.0) x1)) ?x3593)))
 (let ((?x2246 (* 12.0 x1)))
 (let ((?x9494 (+ (+ (* (- 19.0) ?y4) (* (- 15.0) (rval2 ?y2_st))) (* (- 81.0) (rval2 ?y1_st)))))
 (let ((?x5616 (- 95.0)))
 (let ((?x5342 (* 51.0 x1)))
 (let ((?x3348 (+ (+ (* (- 48.0) ?y3) (* (- 58.0) (rval2 ?y2_st))) (* 70.0 (rval2 ?y1_st)))))
 (let (($x2204 (= (+ (+ (* (- 16.0) ?y4) (* (- 40.0) ?y3)) (* 77.0 x1)) 11.0)))
 (let (($x12131 (and (or $x2204 (>= (+ ?x3348 ?x5342) ?x5616)) (or (<= (+ ?x9494 ?x2246) 80.0) $x8686))))
 (let ((?x3539 (* 37.0 x1)))
 (let ((?x3214 (+ (+ (+ (* ?x5616 ?y4) (* 10.0 ?y3)) (* 84.0 (rval2 ?y2_st))) (* 9.0 (rval2 ?y1_st)))))
 (let ((?x2230 (- 81.0)))
 (let ((?x1253 (rval2 ?y1_st)))
 (let ((?x4737 (* 15.0 ?x1253)))
 (let (($x3960 (not (= (+ (+ (* 56.0 ?y4) (* (- 68.0) (rval2 ?y2_st))) ?x4737) ?x2230))))
 (let ((?x12110 (- 19.0)))
 (let ((?x1180 (* ?x12110 x1)))
 (let ((?x760 (+ (+ (+ (* 76.0 ?y4) (* (- 1.0) ?y3)) (* ?x3593 (rval2 ?y2_st))) (* ?x3593 ?x1253))))
 (let (($x911 (and (and (not (= (+ ?x760 ?x1180) 33.0)) $x3960) (not (= (+ ?x3214 ?x3539) 74.0)))))
 (let ((?x8211 (* 20.0 x1)))
 (let ((?x8960 (* 81.0 ?x1253)))
 (let ((?x8161 (+ (+ (+ (* 70.0 ?y4) (* (- 80.0) ?y3)) (* 16.0 (rval2 ?y2_st))) ?x8960)))
 (let ((?x4425 (- 30.0)))
 (let ((?x6566 (* ?x4425 x1)))
 (let ((?x4707 (+ (+ (* (- 68.0) ?y3) (* 98.0 (rval2 ?y2_st))) (* (- 6.0) ?x1253))))
 (let (($x2872 (< (+ (+ (* (- 17.0) ?y4) (* 39.0 ?y3)) (* 84.0 x1)) 0.0)))
 (let ((?x13187 (- 85.0)))
 (let ((?x11244 (* 35.0 x1)))
 (let ((?x4380 (* 100.0 ?x1253)))
 (let ((?x7016 (- 33.0)))
 (let ((?x3873 (* ?x7016 ?y3)))
 (let ((?x5326 (+ (* (- 25.0) ?y4) ?x3873)))
 (let (($x9773 (and (= (+ (+ (+ ?x5326 (* (- 70.0) (rval2 ?y2_st))) ?x4380) ?x11244) ?x13187) $x2872)))
 (let (($x9622 (and (and $x9773 (and (< (+ ?x4707 ?x6566) 0.0) (= (+ ?x8161 ?x8211) 0.0))) $x911)))
 (let ((?x5794 (- 14.0)))
 (let ((?x3464 (- 61.0)))
 (let ((?x9352 (* ?x3464 x1)))
 (let ((?x13132 (+ (+ (* 26.0 ?y4) (* (- 78.0) (rval2 ?y2_st))) (* (- 18.0) ?x1253))))
 (let (($x3835 (<= (+ (+ (* 86.0 ?y4) (* (- 66.0) ?y3)) (* 99.0 ?x1253)) 65.0)))
 (let ((?x4093 (- 77.0)))
 (let (($x4463 (>= (+ (+ (* (- 26.0) ?y4) (* 53.0 ?y3)) (* (- 73.0) ?x1253)) ?x4093)))
 (let (($x12476 (and (not (= (+ (* ?x13187 ?y4) (* (- 7.0) ?x1253)) (- 66.0))) $x4463)))
 (let ((?x2437 (* 50.0 x1)))
 (let ((?x6259 (+ (+ (+ (* ?x2230 ?y3) (* 83.0 (rval2 ?y2_st))) (* (- 28.0) ?x1253)) ?x2437)))
 (let (($x1870 (or (<= ?x6259 8.0) (not (= (+ (* 41.0 ?y4) (* 55.0 ?x1253)) (- 12.0))))))
 (let ((?x7964 (- 71.0)))
 (let (($x10289 (>= (+ (+ (* (- 18.0) ?y4) (* (- 56.0) ?y3)) (* 27.0 x1)) ?x7964)))
 (let ((?x2401 (- 66.0)))
 (let ((?x6803 (- 68.0)))
 (let ((?x4214 (* ?x6803 x1)))
 (let ((?x2915 (- 39.0)))
 (let ((?x8229 (* ?x2915 ?y3)))
 (let ((?x8932 (- 46.0)))
 (let ((?x2132 (* ?x8932 ?y4)))
 (let ((?x296 (+ ?x2132 ?x8229)))
 (let (($x5335 (or (and (not (= (+ (+ ?x296 (* (- 21.0) ?x1253)) ?x4214) ?x2401)) $x10289) $x1870)))
 (let ((?x8858 (- 73.0)))
 (let ((?x6207 (- 18.0)))
 (let ((?x4926 (* ?x6207 x1)))
 (let ((?x638 (+ (* (- 100.0) ?y4) (* (- 6.0) ?y3))))
 (let (($x288 (= (+ (+ (+ ?x638 (* 12.0 (rval2 ?y2_st))) (* (- 60.0) ?x1253)) ?x4926) ?x8858)))
 (let ((?x7669 (- 13.0)))
 (let (($x6307 (= (+ (+ (* (- 51.0) ?y4) (* 52.0 (rval2 ?y2_st))) (* 27.0 ?x1253)) ?x7669)))
 (let ((?x6264 (- 56.0)))
 (let ((?x5470 (* 25.0 ?x1253)))
 (let ((?x10765 (+ (+ (+ (* 18.0 ?y4) (* (- 4.0) ?y3)) (* 13.0 (rval2 ?y2_st))) ?x5470)))
 (let ((?x8109 (- 7.0)))
 (let ((?x4960 (* 72.0 x1)))
 (let ((?x10053 (- 36.0)))
 (let ((?x5576 (* ?x10053 ?y3)))
 (let ((?x10100 (- 15.0)))
 (let ((?x8676 (* ?x10100 ?y4)))
 (let ((?x10642 (+ ?x8676 ?x5576)))
 (let (($x7513 (and (<= (+ (+ ?x10642 (* ?x10053 (rval2 ?y2_st))) ?x4960) ?x8109) (< (+ ?x10765 ?x7056) ?x6264))))
 (let (($x9321 (or (not (= (+ (* ?x3464 ?y4) (* (- 62.0) (rval2 ?y2_st))) 51.0)) (or $x7513 (and $x6307 $x288)))))
 (or (and $x9321 (or $x5335 (and $x12476 (or $x3835 (>= (+ ?x13132 ?x9352) ?x5794))))) (or $x9622 (and $x12131 (and $x2042 $x10811)))))))))))))))))))))))))))))))))))))))))))))))))))))))))))))))))))))))))))))))))))))))))) :qid k!18))
  :qid k!18))
 ))
 (let (($x7501 (exists ((?y4 Real) )(! (let ((?x9521 (* 87.0 x1)))
 (let ((?x9706 (+ (+ (* (- 33.0) ?y4) (* 77.0 (rval2 ?y2_st))) (* (- 82.0) (rval2 ?y1_st)))))
 (let ((?x9672 (rval2 ?y1_st)))
 (let ((?x8674 (* 35.0 ?x9672)))
 (let (($x2794 (not (= (+ (+ (* 86.0 ?y4) (* 14.0 (rval2 ?y2_st))) ?x8674) 0.0))))
 (let (($x4275 (>= (+ (* 71.0 ?y4) (* (- 81.0) x1)) 88.0)))
 (let ((?x7669 (- 13.0)))
 (let ((?x3686 (* ?x7669 x1)))
 (let ((?x737 (+ (+ (* (- 31.0) ?y4) (* 63.0 (rval2 ?y2_st))) (* (- 30.0) ?x9672))))
 (let (($x10025 (and (or (< (+ ?x737 ?x3686) 46.0) $x4275) (and $x2794 (<= (+ ?x9706 ?x9521) 2.0)))))
 (let (($x9511 (or (< (+ (* 75.0 ?y4) (* 39.0 (rval2 ?y2_st))) 37.0) (> (+ (+ (* 37.0 ?y4) (* 63.0 ?x9672)) (* 66.0 x1)) 89.0))))
 (let ((?x9418 (- 22.0)))
 (let ((?x1960 (- 6.0)))
 (let ((?x2164 (* ?x1960 x1)))
 (let (($x5314 (not (= (+ (+ (* (- 4.0) ?y4) (* 99.0 (rval2 ?y2_st))) ?x2164) ?x9418))))
 (let ((?x10118 (- 63.0)))
 (let (($x1756 (= (+ (* (- 9.0) ?y4) (* 78.0 x1)) ?x10118)))
 (let (($x6708 (= (+ (+ (* 29.0 ?y4) (* (- 72.0) ?x9672)) (* (- 76.0) x1)) 0.0)))
 (let (($x5361 (>= (+ (+ (* 78.0 ?y4) (* 28.0 (rval2 ?y2_st))) (* (- 100.0) x1)) 0.0)))
 (let ((?x8892 (- 100.0)))
 (let (($x1363 (= (+ (+ (* ?x9418 (rval2 ?y2_st)) (* (- 5.0) ?x9672)) (* ?x9418 x1)) ?x8892)))
 (let ((?x3883 (- 35.0)))
 (let ((?x2900 (* 93.0 x1)))
 (let ((?x5806 (+ (+ (+ (* (- 10.0) ?y4) (* 70.0 (rval2 ?y2_st))) (* 32.0 ?x9672)) ?x2900)))
 (let (($x9659 (and (or (and (< ?x5806 ?x3883) (not $x1363)) (and $x5361 (not $x6708))) (and (or $x1756 $x5314) $x9511))))
 (let ((?x844 (* 44.0 ?x9672)))
 (let (($x6908 (= (+ (+ (* (- 58.0) ?y4) (* (- 12.0) (rval2 ?y2_st))) ?x844) 0.0)))
 (let ((?x13187 (- 85.0)))
 (let ((?x6602 (* ?x13187 x1)))
 (let ((?x9199 (+ (+ (* (- 80.0) ?y4) (* (- 42.0) (rval2 ?y2_st))) (* (- 21.0) ?x9672))))
 (let ((?x990 (- 53.0)))
 (let ((?x9167 (* 66.0 x1)))
 (let ((?x608 (- 72.0)))
 (let ((?x2572 (* ?x608 ?x9672)))
 (let (($x6409 (>= (+ (+ (+ (* (- 7.0) ?y4) (* 33.0 (rval2 ?y2_st))) ?x2572) ?x9167) ?x990)))
 (let ((?x7016 (- 33.0)))
 (let ((?x11338 (* ?x7016 x1)))
 (let ((?x4042 (+ (+ (+ (* 94.0 ?y4) (* 29.0 (rval2 ?y2_st))) (* (- 75.0) ?x9672)) ?x11338)))
 (let (($x10513 (or (or (>= ?x4042 0.0) $x6409) (or (<= (+ ?x9199 ?x6602) 0.0) (not $x6908)))))
 (let ((?x4626 (* (- 52.0) x1)))
 (let ((?x5016 (+ (+ (* 23.0 ?y4) (* (- 55.0) (rval2 ?y2_st))) (* (- 1.0) ?x9672))))
 (let ((?x2362 (+ (+ (+ (* 42.0 ?y4) (* 99.0 (rval2 ?y2_st))) (* 34.0 ?x9672)) ?x9521)))
 (let ((?x9538 (- 32.0)))
 (let ((?x3223 (* ?x9538 x1)))
 (let ((?x1139 (+ (+ (+ (* (- 59.0) ?y4) (* 54.0 (rval2 ?y2_st))) (* 4.0 ?x9672)) ?x3223)))
 (let ((?x6156 (- 69.0)))
 (let (($x7542 (<= (+ (+ (* (- 55.0) ?y4) (* (- 40.0) ?x9672)) (* 42.0 x1)) ?x6156)))
 (let (($x10433 (and (or $x7542 (< ?x1139 94.0)) (and (> ?x2362 50.0) (not (= (+ ?x5016 ?x4626) 0.0))))))
 (let ((?x13151 (- 21.0)))
 (let ((?x5057 (* 47.0 x1)))
 (let ((?x3972 (+ (+ (+ (* 8.0 ?y4) (* (- 47.0) (rval2 ?y2_st))) (* ?x1960 ?x9672)) ?x5057)))
 (let (($x10550 (and (not (= (+ (* 53.0 ?y4) (* (- 26.0) x1)) 23.0)) (<= (+ (* (- 67.0) ?y4) (* 37.0 x1)) 0.0))))
 (let (($x5485 (<= (+ (+ (* 35.0 ?y4) (* 97.0 (rval2 ?y2_st))) (* (- 40.0) x1)) 32.0)))
 (let ((?x6448 (- 20.0)))
 (let ((?x7211 (* ?x6448 x1)))
 (let ((?x4211 (+ (+ (+ (* 22.0 ?y4) (* ?x13151 (rval2 ?y2_st))) (* 70.0 ?x9672)) ?x7211)))
 (let ((?x1184 (- 97.0)))
 (let ((?x11201 (* ?x1184 x1)))
 (let ((?x5352 (+ (+ (* (- 84.0) ?y4) (* (- 30.0) (rval2 ?y2_st))) (* 43.0 ?x9672))))
 (let (($x1145 (and (or (and (<= (+ ?x5352 ?x11201) 0.0) (>= ?x4211 0.0)) $x5485) (or $x10550 (not (= ?x3972 ?x13151))))))
 (and (and $x1145 (or $x10433 $x10513)) (or $x9659 $x10025)))))))))))))))))))))))))))))))))))))))))))))))))))))))))))))) :qid k!18))
 ))
 (let (($x5480 (exists ((?y4 Real) )(! (let ((?x2137 (- 37.0)))
 (let ((?x3896 (* ?x2137 x1)))
 (let ((?x8911 (+ (+ (* (- 67.0) ?y4) (* 96.0 (rval2 ?y2_st))) (* (- 14.0) (rval2 ?y1_st)))))
 (let (($x9921 (and (< (+ ?x8911 ?x3896) 0.0) (<= (+ (* 99.0 (rval2 ?y2_st)) (* 47.0 x1)) 86.0))))
 (let ((?x876 (* 17.0 x1)))
 (let ((?x4614 (+ (+ (* 89.0 ?y4) (* 20.0 (rval2 ?y2_st))) (* (- 26.0) (rval2 ?y1_st)))))
 (let ((?x13151 (- 21.0)))
 (let ((?x9612 (* 3.0 x1)))
 (let (($x10852 (> (+ (+ (* 76.0 (rval2 ?y2_st)) (* 85.0 (rval2 ?y1_st))) ?x9612) ?x13151)))
 (let ((?x3096 (- 82.0)))
 (let (($x5541 (<= (+ (+ (* 39.0 ?y4) (* 99.0 (rval2 ?y1_st))) (* (- 42.0) x1)) ?x3096)))
 (let (($x1955 (>= (+ (+ (* 46.0 ?y4) (* 16.0 (rval2 ?y2_st))) (* 53.0 x1)) 0.0)))
 (let ((?x5616 (- 95.0)))
 (let ((?x10118 (- 63.0)))
 (let ((?x7056 (* ?x10118 x1)))
 (let ((?x10851 (+ (+ (* (- 88.0) ?y4) (* (- 78.0) (rval2 ?y2_st))) (* (- 96.0) (rval2 ?y1_st)))))
 (let (($x8035 (or (not (= (+ (* 64.0 (rval2 ?y1_st)) (* (- 39.0) x1)) 3.0)) (= (+ (* 85.0 (rval2 ?y2_st)) (* (- 57.0) x1)) 0.0))))
 (and (or $x8035 (and (or (>= (+ ?x10851 ?x7056) ?x5616) $x1955) $x5541)) (and (or $x10852 (= (+ ?x4614 ?x876) 0.0)) $x9921))))))))))))))))))) :qid k!18))
 ))
 (let (($x6551 (or (= (+ (* (- 57.0) (rval2 ?y1_st)) (* (- 86.0) x1)) 0.0) (< (* 72.0 (rval2 ?y2_st)) 0.0))))
 (let ((?x9304 (- 91.0)))
 (let ((?x1881 (* 22.0 x1)))
 (let (($x10650 (= (+ (+ (* (- 49.0) (rval2 ?y2_st)) (* 68.0 (rval2 ?y1_st))) ?x1881) ?x9304)))
 (let (($x4422 (or (> (+ (* (- 89.0) (rval2 ?y2_st)) (* (- 72.0) x1)) 0.0) $x10650)))
 (let ((?x7016 (- 33.0)))
 (let ((?x7750 (- 31.0)))
 (let ((?x13059 (* ?x7750 x1)))
 (let (($x2240 (= (+ (+ (* 31.0 (rval2 ?y2_st)) (* (- 39.0) (rval2 ?y1_st))) ?x13059) ?x7016)))
 (let (($x5808 (and $x2240 (< (+ (* (- 3.0) (rval2 ?y2_st)) (* 38.0 (rval2 ?y1_st))) 61.0))))
 (let (($x5895 (exists ((?y4 Real) )(! (let ((?x2871 (* 5.0 x1)))
 (let ((?x9672 (rval2 ?y1_st)))
 (let ((?x12077 (- 80.0)))
 (let ((?x5707 (* ?x12077 ?x9672)))
 (let (($x6224 (= (+ (+ (+ (* 67.0 ?y4) (* (- 92.0) (rval2 ?y2_st))) ?x5707) ?x2871) 15.0)))
 (let (($x1937 (< (+ (+ (* 40.0 ?y4) (* 86.0 ?x9672)) (* (- 16.0) x1)) 1.0)))
 (let ((?x6876 (- 38.0)))
 (let (($x2785 (< (+ (+ (* 71.0 ?y4) (* (- 39.0) (rval2 ?y2_st))) (* 9.0 ?x9672)) ?x6876)))
 (let (($x6043 (<= (+ (+ (* 38.0 ?y4) (* (- 50.0) (rval2 ?y2_st))) (* 46.0 ?x9672)) 0.0)))
 (let ((?x7964 (- 71.0)))
 (let ((?x2866 (* ?x7964 x1)))
 (let ((?x3805 (+ (+ (* (- 31.0) ?y4) (* (- 61.0) (rval2 ?y2_st))) (* (- 15.0) ?x9672))))
 (let (($x8413 (<= (+ (+ (* 61.0 ?y4) (* (- 29.0) (rval2 ?y2_st))) (* 40.0 ?x9672)) 75.0)))
 (let ((?x1723 (- 93.0)))
 (let (($x9584 (= (+ (+ (* (- 19.0) (rval2 ?y2_st)) (* 94.0 ?x9672)) (* 97.0 x1)) ?x1723)))
 (and (or (not $x9584) (and $x8413 (not (= (+ ?x3805 ?x2866) 0.0)))) (and (or $x6043 $x2785) (or $x1937 $x6224)))))))))))))))))) :qid k!18))
 ))
 (let (($x5748 (forall ((?y3 Real) )(! (let (($x5357 (= (+ (+ (* (- 80.0) ?y3) (* 28.0 (rval2 ?y2_st))) (* 13.0 x1)) 30.0)))
 (let ((?x4093 (- 77.0)))
 (let ((?x8858 (- 73.0)))
 (let ((?x2634 (* ?x8858 x1)))
 (let ((?x932 (+ (+ (* (- 15.0) ?y3) (* (- 33.0) (rval2 ?y2_st))) (* (- 24.0) (rval2 ?y1_st)))))
 (let ((?x8724 (* 86.0 x1)))
 (let ((?x9672 (rval2 ?y1_st)))
 (let ((?x8851 (* 1.0 ?x9672)))
 (let (($x8528 (>= (+ (+ (+ (* 21.0 ?y3) (* (- 100.0) (rval2 ?y2_st))) ?x8851) ?x8724) 19.0)))
 (let ((?x8783 (- 34.0)))
 (let ((?x4228 (* 34.0 ?x9672)))
 (let (($x12688 (> (+ (+ (* (- 30.0) ?y3) (* (- 56.0) (rval2 ?y2_st))) ?x4228) ?x8783)))
 (let (($x5553 (or $x12688 (>= (+ (* (- 12.0) (rval2 ?y2_st)) (* 100.0 ?x9672)) 46.0))))
 (let (($x8071 (not (= (+ (* (- 44.0) ?y3) (* (- 3.0) (rval2 ?y2_st))) (- 4.0)))))
 (let ((?x12077 (- 80.0)))
 (let ((?x2724 (+ (+ (* (- 32.0) ?y3) (* (- 21.0) (rval2 ?y2_st))) (* 13.0 ?x9672))))
 (let (($x9147 (or (and (or (< ?x2724 ?x12077) $x8071) $x5553) (or $x8528 (and (>= (+ ?x932 ?x2634) ?x4093) $x5357)))))
 (let ((?x990 (- 53.0)))
 (let ((?x4996 (* ?x990 x1)))
 (let (($x709 (<= (+ (+ (* 55.0 (rval2 ?y2_st)) (* (- 89.0) ?x9672)) ?x4996) 0.0)))
 (let ((?x3539 (* 37.0 x1)))
 (let ((?x1865 (+ (+ (+ (* (- 31.0) ?y3) (* 26.0 (rval2 ?y2_st))) (* 59.0 ?x9672)) ?x3539)))
 (let (($x1613 (and (> (+ (* 15.0 (rval2 ?y2_st)) (* 13.0 x1)) 80.0) (>= ?x1865 0.0))))
 (let ((?x2114 (+ (+ (* (- 59.0) ?y3) (* ?x8858 (rval2 ?y2_st))) (* (- 76.0) ?x9672))))
 (let ((?x2874 (- 55.0)))
 (let (($x11004 (> (+ (* (- 95.0) ?y3) (* 16.0 x1)) ?x2874)))
 (let ((?x1034 (- 40.0)))
 (let ((?x8157 (* 38.0 x1)))
 (let ((?x5707 (* ?x12077 ?x9672)))
 (let ((?x1754 (+ (+ (+ (* (- 83.0) ?y3) (* (- 36.0) (rval2 ?y2_st))) ?x5707) ?x8157)))
 (let (($x12989 (= (+ (+ (* (- 35.0) ?y3) (* 34.0 (rval2 ?y2_st))) (* 42.0 x1)) 0.0)))
 (let (($x2690 (and (or (and (not $x12989) (> ?x1754 ?x1034)) (and $x11004 (<= ?x2114 0.0))) (or $x1613 (or $x709 (> (+ (* 73.0 ?y3) (* 10.0 ?x9672)) 59.0))))))
 (let ((?x10100 (- 15.0)))
 (let ((?x9391 (- 58.0)))
 (let ((?x7751 (* ?x9391 x1)))
 (let ((?x8479 (+ (+ (* (- 29.0) ?y3) (* (- 49.0) (rval2 ?y2_st))) (* (- 85.0) ?x9672))))
 (let (($x9261 (and (= (+ ?x8479 ?x7751) ?x10100) (= (+ (* 39.0 ?y3) (* 40.0 (rval2 ?y2_st))) (- 63.0)))))
 (let (($x9274 (or (> (+ (+ (* 27.0 ?y3) (* 49.0 (rval2 ?y2_st))) ?x5707) (- 79.0)) (not (= (+ (* (- 4.0) ?x9672) (* (- 1.0) x1)) (- 37.0))))))
 (let (($x11256 (not (= (+ (* 72.0 ?y3) (* 44.0 ?x9672)) 0.0))))
 (let ((?x9418 (- 22.0)))
 (let ((?x4782 (* ?x9418 x1)))
 (let (($x10260 (or (> (+ (+ (* (- 91.0) ?y3) (* (- 9.0) ?x9672)) ?x4782) 95.0) $x11256)))
 (let ((?x384 (- 88.0)))
 (let ((?x5452 (- 57.0)))
 (let ((?x2949 (* ?x5452 x1)))
 (let ((?x9885 (+ (+ (* 73.0 ?y3) (* (- 64.0) (rval2 ?y2_st))) (* (- 20.0) ?x9672))))
 (let ((?x2216 (- 24.0)))
 (let (($x9631 (= (+ (+ (* (- 41.0) (rval2 ?y2_st)) (* 64.0 ?x9672)) (* 12.0 x1)) ?x2216)))
 (let (($x4394 (or (or (or $x9631 (not (= (+ ?x9885 ?x2949) ?x384))) $x10260) (and $x9274 $x9261))))
 (let (($x8798 (>= (+ (* (- 74.0) ?y3) (* 84.0 x1)) 10.0)))
 (let ((?x3608 (* 74.0 x1)))
 (let ((?x13182 (+ (+ (* (- 20.0) ?y3) (* (- 31.0) (rval2 ?y2_st))) (* 19.0 ?x9672))))
 (let ((?x5794 (- 14.0)))
 (let ((?x8725 (* 40.0 x1)))
 (let ((?x5218 (- 92.0)))
 (let ((?x8544 (* ?x5218 ?x9672)))
 (let (($x931 (>= (+ (+ (+ (* (- 79.0) ?y3) (* 61.0 (rval2 ?y2_st))) ?x8544) ?x8725) ?x5794)))
 (let ((?x9521 (* 87.0 x1)))
 (let ((?x8854 (+ (+ (* (- 1.0) ?y3) (* (- 98.0) (rval2 ?y2_st))) (* (- 98.0) ?x9672))))
 (let ((?x1301 (- 83.0)))
 (let ((?x7552 (* ?x1301 x1)))
 (let ((?x7391 (+ (+ (+ (* 62.0 ?y3) (* ?x8858 (rval2 ?y2_st))) (* (- 9.0) ?x9672)) ?x7552)))
 (let (($x9184 (and (and (>= ?x7391 0.0) (< (* 41.0 (rval2 ?y2_st)) (- 41.0))) (< (+ ?x8854 ?x9521) 0.0))))
 (let (($x1596 (and (or $x9184 (or (or $x931 (not (= (+ ?x13182 ?x3608) 17.0))) $x8798)) $x4394)))
 (let ((?x10952 (* 80.0 x1)))
 (let ((?x10552 (+ (+ (* 16.0 ?y3) (* (- 17.0) (rval2 ?y2_st))) (* (- 12.0) ?x9672))))
 (let (($x3009 (and (> (+ (* ?x990 ?x9672) (* (- 72.0) x1)) 42.0) (< (+ ?x10552 ?x10952) 0.0))))
 (let ((?x9825 (- 2.0)))
 (let ((?x10196 (* 77.0 x1)))
 (let ((?x8284 (+ (+ (* (- 74.0) ?y3) (* (- 99.0) (rval2 ?y2_st))) (* (- 65.0) ?x9672))))
 (let (($x3543 (= (+ (+ (* 7.0 ?y3) (* (- 89.0) (rval2 ?y2_st))) (* ?x990 ?x9672)) 36.0)))
 (let ((?x8664 (- 74.0)))
 (let ((?x2915 (- 39.0)))
 (let ((?x7479 (* ?x2915 x1)))
 (let ((?x5593 (+ (+ (+ (* 100.0 ?y3) (* 45.0 (rval2 ?y2_st))) (* (- 100.0) ?x9672)) ?x7479)))
 (let (($x2953 (or (< (+ (* 52.0 ?y3) (* (- 62.0) ?x9672)) 25.0) (= (+ (* (- 54.0) (rval2 ?y2_st)) ?x8851) (- 66.0)))))
 (let (($x11836 (> (* (- 87.0) ?y3) 17.0)))
 (let ((?x9485 (- 50.0)))
 (let ((?x1734 (* ?x9485 x1)))
 (let ((?x8515 (+ (+ (+ (* ?x8783 ?y3) (* (- 1.0) (rval2 ?y2_st))) (* 76.0 ?x9672)) ?x1734)))
 (let ((?x67 (- 42.0)))
 (let ((?x769 (* ?x67 x1)))
 (let (($x9475 (<= (+ (+ (+ (* (- 11.0) ?y3) (* 29.0 (rval2 ?y2_st))) ?x8544) ?x769) 0.0)))
 (let (($x6125 (and (or $x9475 (<= (+ (* 80.0 ?x9672) (* 89.0 x1)) 0.0)) (and (<= ?x8515 0.0) $x11836))))
 (let (($x7317 (and $x6125 (or $x2953 (or (>= ?x5593 ?x8664) (> (* (- 61.0) ?x9672) (- 46.0)))))))
 (let (($x3048 (> (+ (* (- 11.0) ?y3) (* (- 5.0) x1)) 29.0)))
 (let ((?x5188 (- 44.0)))
 (let ((?x10828 (- 12.0)))
 (let ((?x2083 (* ?x10828 x1)))
 (let ((?x8526 (+ (+ (* (- 95.0) ?y3) (* (- 97.0) (rval2 ?y2_st))) (* 91.0 ?x9672))))
 (let ((?x6137 (* 67.0 x1)))
 (let (($x4117 (<= (+ (+ (* (- 19.0) ?y3) (* (- 75.0) (rval2 ?y2_st))) ?x6137) 84.0)))
 (let (($x5791 (and $x4117 (= (+ (+ (* 50.0 ?y3) (* 77.0 ?x9672)) (* 36.0 x1)) 81.0))))
 (let ((?x522 (- 4.0)))
 (let ((?x10846 (* 39.0 x1)))
 (let ((?x4924 (+ (* 68.0 ?y3) ?x10846)))
 (let (($x1330 (> ?x4924 ?x522)))
 (let ((?x494 (* 90.0 x1)))
 (let ((?x10623 (+ (+ (+ (* (- 46.0) ?y3) (* ?x5452 (rval2 ?y2_st))) (* 87.0 ?x9672)) ?x494)))
 (let ((?x1480 (* 64.0 x1)))
 (let ((?x3675 (+ (+ (+ (* ?x990 ?y3) (* (- 67.0) (rval2 ?y2_st))) (* 74.0 ?x9672)) ?x1480)))
 (let ((?x4425 (- 30.0)))
 (let ((?x6876 (- 38.0)))
 (let ((?x8663 (* ?x6876 x1)))
 (let ((?x429 (+ (+ (* 9.0 ?y3) (* (- 43.0) (rval2 ?y2_st))) (* (- 51.0) ?x9672))))
 (let (($x8140 (or (or (= (+ ?x429 ?x8663) ?x4425) (>= ?x3675 0.0)) (or (<= ?x10623 0.0) $x1330))))
 (let (($x4693 (forall ((?y4 Real) )(! (let ((?x4520 (* 45.0 x1)))
 (let (($x53 (= (+ (+ (* (- 4.0) (rval2 ?y2_st)) (* 8.0 (rval2 ?y1_st))) ?x4520) 0.0)))
 (let ((?x2915 (- 39.0)))
 (let ((?x13187 (- 85.0)))
 (let ((?x6602 (* ?x13187 x1)))
 (let ((?x7132 (+ (* (- 70.0) ?y4) (* (- 25.0) ?y3))))
 (let ((?x6981 (+ (+ (+ ?x7132 (* (- 45.0) (rval2 ?y2_st))) (* 56.0 (rval2 ?y1_st))) ?x6602)))
 (let ((?x7072 (- 29.0)))
 (let ((?x5691 (+ (+ (+ (* (- 79.0) ?y4) (* 98.0 ?y3)) (* 42.0 (rval2 ?y2_st))) (* 67.0 (rval2 ?y1_st)))))
 (let ((?x2269 (* 62.0 x1)))
 (let ((?x1253 (rval2 ?y1_st)))
 (let ((?x9 (* 42.0 ?x1253)))
 (let (($x7278 (<= (+ (+ (+ (* 39.0 ?y3) (* 11.0 (rval2 ?y2_st))) ?x9) ?x2269) 32.0)))
 (let ((?x9521 (* 87.0 x1)))
 (let ((?x136 (+ (+ (+ (* 4.0 ?y4) (* 44.0 ?y3)) (* (- 99.0) ?x1253)) ?x9521)))
 (let ((?x1984 (- 54.0)))
 (let ((?x2401 (- 66.0)))
 (let ((?x8009 (* ?x2401 x1)))
 (let ((?x4343 (+ (* (- 48.0) ?y4) (* (- 62.0) ?y3))))
 (let ((?x7788 (+ (+ (+ ?x4343 (* (- 74.0) (rval2 ?y2_st))) (* (- 100.0) ?x1253)) ?x8009)))
 (let ((?x5794 (- 14.0)))
 (let ((?x10044 (- 67.0)))
 (let ((?x5841 (* ?x10044 x1)))
 (let (($x6236 (>= (+ (+ (* (- 92.0) (rval2 ?y2_st)) (* (- 95.0) ?x1253)) ?x5841) ?x5794)))
 (let ((?x2263 (* 31.0 x1)))
 (let (($x8068 (>= (+ (+ (* (- 77.0) ?y4) (* (- 34.0) (rval2 ?y2_st))) ?x2263) 64.0)))
 (and (or (and $x8068 $x6236) (or (not (= ?x7788 ?x1984)) (>= ?x136 46.0))) (and (and $x7278 (>= ?x5691 ?x7072)) (and (not (= ?x6981 ?x2915)) $x53))))))))))))))))))))))))))))) :qid k!18))
 ))
 (let (($x7294 (or (and $x4693 (and $x8140 (and $x5791 (and (< (+ ?x8526 ?x2083) ?x5188) $x3048)))) (or $x7317 (or (and (not $x3543) (>= (+ ?x8284 ?x10196) ?x9825)) $x3009)))))
 (and $x7294 (or $x1596 (or $x2690 $x9147))))))))))))))))))))))))))))))))))))))))))))))))))))))))))))))))))))))))))))))))))))))))))))))))))))))))))))))) :qid k!18))
 ))
 (let (($x5197 (or $x5748 (and (and (and $x5895 (and $x5808 (or $x4422 $x6551))) $x5480) $x7501))))
 (let (($x8272 (not (= ?y2_st (RMk1 val!303)))))
 (let (($x3219 (not (= ?y1_st (RMk1 val!302)))))
 (and $x3219 $x8272 (and $x5197 $x77)))))))))))))))))))))
 )
 )
(check-sat)
